39 2000
4 143
5 153
5 178
2 172
7 20
10 135
9 194
7 194
8 155
5 124
2 153
6 174
11 143
6 107
6 177
11 161
10 124
11 121
10 161
9 132
10 177
2 107
4 187
6 155
9 166
9 174
6 166
5 163
5 163
5 119
9 172
5 152
7 135
2 187
3 121
11 119
9 152
8 132
9 178
